p cnf 92 523
1 2 3 4 0
5 6 7 8 0
9 10 11 12 0
13 14 15 16 0
17 18 19 20 0
21 22 23 24 0
25 26 27 28 0
29 30 31 32 0
33 34 35 36 0
37 38 39 40 0
41 42 43 44 0
45 46 47 48 0
49 50 51 52 0
53 54 55 56 0
57 58 59 60 0
61 62 63 64 0
65 66 67 68 0
69 70 71 72 0
73 74 75 76 0
77 78 79 80 0
81 82 83 84 0
85 86 87 88 0
89 90 91 92 0
-1 -5 0
-2 -6 0
-3 -7 0
-4 -8 0
-9 -5 0
-10 -6 0
-11 -7 0
-12 -8 0
-1 -13 0
-2 -14 0
-3 -15 0
-4 -16 0
-9 -17 0
-10 -18 0
-11 -19 0
-12 -20 0
-13 -17 0
-14 -18 0
-15 -19 0
-16 -20 0
-21 -5 0
-22 -6 0
-23 -7 0
-24 -8 0
-1 -25 0
-2 -26 0
-3 -27 0
-4 -28 0
-29 -5 0
-30 -6 0
-31 -7 0
-32 -8 0
-9 -25 0
-10 -26 0
-11 -27 0
-12 -28 0
-21 -13 0
-22 -14 0
-23 -15 0
-24 -16 0
-1 -33 0
-2 -34 0
-3 -35 0
-4 -36 0
-29 -17 0
-30 -18 0
-31 -19 0
-32 -20 0
-9 -37 0
-10 -38 0
-11 -39 0
-12 -40 0
-33 -17 0
-34 -18 0
-35 -19 0
-36 -20 0
-13 -37 0
-14 -38 0
-15 -39 0
-16 -40 0
-21 -41 0
-22 -42 0
-23 -43 0
-24 -44 0
-25 -41 0
-26 -42 0
-27 -43 0
-28 -44 0
-29 -41 0
-30 -42 0
-31 -43 0
-32 -44 0
-33 -41 0
-34 -42 0
-35 -43 0
-36 -44 0
-37 -41 0
-38 -42 0
-39 -43 0
-40 -44 0
-45 -5 0
-46 -6 0
-47 -7 0
-48 -8 0
-1 -49 0
-2 -50 0
-3 -51 0
-4 -52 0
-53 -5 0
-54 -6 0
-55 -7 0
-56 -8 0
-9 -49 0
-10 -50 0
-11 -51 0
-12 -52 0
-45 -13 0
-46 -14 0
-47 -15 0
-48 -16 0
-1 -57 0
-2 -58 0
-3 -59 0
-4 -60 0
-53 -17 0
-54 -18 0
-55 -19 0
-56 -20 0
-9 -61 0
-10 -62 0
-11 -63 0
-12 -64 0
-57 -17 0
-58 -18 0
-59 -19 0
-60 -20 0
-13 -61 0
-14 -62 0
-15 -63 0
-16 -64 0
-65 -5 0
-66 -6 0
-67 -7 0
-68 -8 0
-21 -49 0
-22 -50 0
-23 -51 0
-24 -52 0
-45 -25 0
-46 -26 0
-47 -27 0
-48 -28 0
-1 -69 0
-2 -70 0
-3 -71 0
-4 -72 0
-73 -5 0
-74 -6 0
-75 -7 0
-76 -8 0
-29 -49 0
-30 -50 0
-31 -51 0
-32 -52 0
-53 -25 0
-54 -26 0
-55 -27 0
-56 -28 0
-9 -69 0
-10 -70 0
-11 -71 0
-12 -72 0
-65 -13 0
-66 -14 0
-67 -15 0
-68 -16 0
-21 -57 0
-22 -58 0
-23 -59 0
-24 -60 0
-45 -33 0
-46 -34 0
-47 -35 0
-48 -36 0
-1 -77 0
-2 -78 0
-3 -79 0
-4 -80 0
-73 -17 0
-74 -18 0
-75 -19 0
-76 -20 0
-29 -61 0
-30 -62 0
-31 -63 0
-32 -64 0
-53 -37 0
-54 -38 0
-55 -39 0
-56 -40 0
-9 -81 0
-10 -82 0
-11 -83 0
-12 -84 0
-77 -17 0
-78 -18 0
-79 -19 0
-80 -20 0
-33 -61 0
-34 -62 0
-35 -63 0
-36 -64 0
-57 -37 0
-58 -38 0
-59 -39 0
-60 -40 0
-13 -81 0
-14 -82 0
-15 -83 0
-16 -84 0
-65 -41 0
-66 -42 0
-67 -43 0
-68 -44 0
-21 -85 0
-22 -86 0
-23 -87 0
-24 -88 0
-69 -41 0
-70 -42 0
-71 -43 0
-72 -44 0
-25 -85 0
-26 -86 0
-27 -87 0
-28 -88 0
-73 -41 0
-74 -42 0
-75 -43 0
-76 -44 0
-29 -85 0
-30 -86 0
-31 -87 0
-32 -88 0
-77 -41 0
-78 -42 0
-79 -43 0
-80 -44 0
-33 -85 0
-34 -86 0
-35 -87 0
-36 -88 0
-81 -41 0
-82 -42 0
-83 -43 0
-84 -44 0
-37 -85 0
-38 -86 0
-39 -87 0
-40 -88 0
-45 -89 0
-46 -90 0
-47 -91 0
-48 -92 0
-49 -89 0
-50 -90 0
-51 -91 0
-52 -92 0
-53 -89 0
-54 -90 0
-55 -91 0
-56 -92 0
-57 -89 0
-58 -90 0
-59 -91 0
-60 -92 0
-61 -89 0
-62 -90 0
-63 -91 0
-64 -92 0
-65 -89 0
-66 -90 0
-67 -91 0
-68 -92 0
-69 -89 0
-70 -90 0
-71 -91 0
-72 -92 0
-73 -89 0
-74 -90 0
-75 -91 0
-76 -92 0
-77 -89 0
-78 -90 0
-79 -91 0
-80 -92 0
-81 -89 0
-82 -90 0
-83 -91 0
-84 -92 0
-85 -89 0
-86 -90 0
-87 -91 0
-88 -92 0
-46 -1 89 0
-47 -1 89 0
-48 -1 89 0
-45 -2 90 0
-47 -2 90 0
-48 -2 90 0
-45 -3 91 0
-46 -3 91 0
-48 -3 91 0
-45 -4 92 0
-46 -4 92 0
-47 -4 92 0
-50 -5 89 0
-51 -5 89 0
-52 -5 89 0
-49 -6 90 0
-51 -6 90 0
-52 -6 90 0
-49 -7 91 0
-50 -7 91 0
-52 -7 91 0
-49 -8 92 0
-50 -8 92 0
-51 -8 92 0
-54 -9 89 0
-55 -9 89 0
-56 -9 89 0
-53 -10 90 0
-55 -10 90 0
-56 -10 90 0
-53 -11 91 0
-54 -11 91 0
-56 -11 91 0
-53 -12 92 0
-54 -12 92 0
-55 -12 92 0
-58 -13 89 0
-59 -13 89 0
-60 -13 89 0
-57 -14 90 0
-59 -14 90 0
-60 -14 90 0
-57 -15 91 0
-58 -15 91 0
-60 -15 91 0
-57 -16 92 0
-58 -16 92 0
-59 -16 92 0
-62 -17 89 0
-63 -17 89 0
-64 -17 89 0
-61 -18 90 0
-63 -18 90 0
-64 -18 90 0
-61 -19 91 0
-62 -19 91 0
-64 -19 91 0
-61 -20 92 0
-62 -20 92 0
-63 -20 92 0
-66 -21 89 0
-67 -21 89 0
-68 -21 89 0
-65 -22 90 0
-67 -22 90 0
-68 -22 90 0
-65 -23 91 0
-66 -23 91 0
-68 -23 91 0
-65 -24 92 0
-66 -24 92 0
-67 -24 92 0
-70 -25 89 0
-71 -25 89 0
-72 -25 89 0
-69 -26 90 0
-71 -26 90 0
-72 -26 90 0
-69 -27 91 0
-70 -27 91 0
-72 -27 91 0
-69 -28 92 0
-70 -28 92 0
-71 -28 92 0
-74 -29 89 0
-75 -29 89 0
-76 -29 89 0
-73 -30 90 0
-75 -30 90 0
-76 -30 90 0
-73 -31 91 0
-74 -31 91 0
-76 -31 91 0
-73 -32 92 0
-74 -32 92 0
-75 -32 92 0
-78 -33 89 0
-79 -33 89 0
-80 -33 89 0
-77 -34 90 0
-79 -34 90 0
-80 -34 90 0
-77 -35 91 0
-78 -35 91 0
-80 -35 91 0
-77 -36 92 0
-78 -36 92 0
-79 -36 92 0
-82 -37 89 0
-83 -37 89 0
-84 -37 89 0
-81 -38 90 0
-83 -38 90 0
-84 -38 90 0
-81 -39 91 0
-82 -39 91 0
-84 -39 91 0
-81 -40 92 0
-82 -40 92 0
-83 -40 92 0
-86 -41 89 0
-87 -41 89 0
-88 -41 89 0
-85 -42 90 0
-87 -42 90 0
-88 -42 90 0
-85 -43 91 0
-86 -43 91 0
-88 -43 91 0
-85 -44 92 0
-86 -44 92 0
-87 -44 92 0
-66 -45 85 0
-67 -45 85 0
-68 -45 85 0
-65 -46 86 0
-67 -46 86 0
-68 -46 86 0
-65 -47 87 0
-66 -47 87 0
-68 -47 87 0
-65 -48 88 0
-66 -48 88 0
-67 -48 88 0
-70 -49 85 0
-71 -49 85 0
-72 -49 85 0
-69 -50 86 0
-71 -50 86 0
-72 -50 86 0
-69 -51 87 0
-70 -51 87 0
-72 -51 87 0
-69 -52 88 0
-70 -52 88 0
-71 -52 88 0
-74 -53 85 0
-75 -53 85 0
-76 -53 85 0
-73 -54 86 0
-75 -54 86 0
-76 -54 86 0
-73 -55 87 0
-74 -55 87 0
-76 -55 87 0
-73 -56 88 0
-74 -56 88 0
-75 -56 88 0
-78 -57 85 0
-79 -57 85 0
-80 -57 85 0
-77 -58 86 0
-79 -58 86 0
-80 -58 86 0
-77 -59 87 0
-78 -59 87 0
-80 -59 87 0
-77 -60 88 0
-78 -60 88 0
-79 -60 88 0
-82 -61 85 0
-83 -61 85 0
-84 -61 85 0
-81 -62 86 0
-83 -62 86 0
-84 -62 86 0
-81 -63 87 0
-82 -63 87 0
-84 -63 87 0
-81 -64 88 0
-82 -64 88 0
-83 -64 88 0
-74 -65 81 0
-75 -65 81 0
-76 -65 81 0
-73 -66 82 0
-75 -66 82 0
-76 -66 82 0
-73 -67 83 0
-74 -67 83 0
-76 -67 83 0
-73 -68 84 0
-74 -68 84 0
-75 -68 84 0
-78 -69 81 0
-79 -69 81 0
-80 -69 81 0
-77 -70 82 0
-79 -70 82 0
-80 -70 82 0
-77 -71 83 0
-78 -71 83 0
-80 -71 83 0
-77 -72 84 0
-78 -72 84 0
-79 -72 84 0
